n=588;
k_min=13;
k_max=13;
M=[| 70, 81, 74, 72, 71, 81, 80, 74, 80, 71, 75, 81, 82
 | 70, 81, 74, 72, 71, 81, 80, 74, 80, 71, 75, 81, 82
 | 70, 82, 74, 72, 71, 81, 80, 74, 80, 71, 75, 82, 83
 | 70, 82, 74, 73, 71, 81, 79, 74, 80, 71, 75, 82, 83
 | 70, 83, 74, 73, 71, 80, 79, 74, 80, 72, 75, 82, 83
 | 70, 83, 74, 73, 71, 80, 79, 74, 79, 72, 75, 82, 82
 | 70, 83, 74, 73, 71, 80, 79, 74, 79, 72, 75, 82, 82
 | 71, 83, 74, 73, 71, 80, 79, 74, 79, 72, 75, 82, 82
 | 71, 83, 74, 73, 71, 80, 79, 74, 79, 72, 75, 82, 81
 | 71, 83, 74, 74, 72, 80, 79, 73, 79, 72, 75, 82, 81
 | 71, 83, 74, 74, 72, 80, 79, 73, 79, 72, 75, 81, 80
 | 71, 83, 75, 74, 72, 80, 79, 73, 79, 72, 75, 81, 80
 | 71, 83, 75, 74, 72, 80, 79, 73, 79, 73, 75, 81, 79
 | 71, 82, 75, 75, 72, 80, 79, 74, 79, 73, 75, 81, 79
 | 71, 83, 75, 75, 72, 80, 79, 74, 79, 73, 75, 81, 79
 | 71, 83, 75, 75, 72, 80, 79, 74, 79, 73, 75, 81, 78
 | 70, 83, 75, 74, 72, 81, 79, 74, 79, 72, 75, 80, 78
 | 70, 83, 75, 74, 72, 81, 79, 74, 80, 72, 76, 80, 78
 | 70, 81, 74, 72, 71, 81, 80, 74, 80, 71, 75, 81, 83
 | 70, 81, 74, 72, 71, 81, 80, 74, 80, 71, 75, 81, 83
 | 70, 81, 74, 72, 71, 81, 80, 74, 80, 71, 75, 81, 83
 | 70, 82, 74, 73, 71, 81, 80, 74, 80, 71, 75, 81, 83
 | 70, 81, 74, 72, 71, 81, 80, 74, 80, 71, 75, 81, 82
 | 70, 82, 74, 73, 71, 80, 79, 74, 80, 71, 75, 82, 83
 | 70, 82, 74, 73, 71, 80, 79, 74, 80, 72, 75, 81, 83
 | 70, 83, 74, 73, 71, 80, 79, 74, 79, 72, 75, 81, 82
 | 71, 83, 74, 73, 71, 80, 79, 74, 79, 72, 75, 81, 82
 | 71, 83, 74, 73, 71, 80, 79, 74, 79, 72, 75, 81, 82
 | 71, 83, 74, 73, 71, 80, 79, 74, 79, 72, 75, 81, 81
 | 71, 82, 74, 74, 72, 80, 79, 74, 79, 72, 75, 82, 81
 | 71, 83, 74, 74, 72, 80, 79, 74, 79, 72, 75, 81, 81
 | 71, 83, 74, 74, 72, 80, 79, 73, 79, 72, 75, 81, 80
 | 71, 83, 74, 74, 72, 80, 79, 74, 79, 72, 75, 81, 80
 | 71, 83, 75, 74, 72, 80, 79, 73, 79, 72, 75, 81, 80
 | 71, 83, 75, 74, 72, 80, 78, 74, 79, 73, 75, 81, 79
 | 71, 83, 75, 75, 72, 80, 78, 74, 79, 73, 75, 81, 79
 | 71, 83, 75, 74, 72, 80, 79, 73, 79, 72, 75, 81, 80
 | 71, 83, 75, 75, 72, 80, 78, 74, 79, 73, 75, 81, 79
 | 71, 83, 75, 75, 72, 80, 78, 74, 79, 73, 75, 80, 78
 | 71, 83, 75, 75, 72, 80, 79, 74, 79, 73, 75, 80, 78
 | 71, 82, 75, 75, 72, 80, 79, 74, 79, 73, 75, 80, 78
 | 71, 82, 75, 75, 72, 80, 79, 74, 79, 73, 76, 80, 78
 | 70, 83, 75, 75, 72, 81, 79, 74, 79, 73, 76, 80, 78
 | 70, 81, 74, 72, 71, 80, 80, 74, 80, 71, 75, 81, 83
 | 70, 81, 74, 72, 71, 80, 80, 74, 80, 72, 75, 81, 83
 | 70, 81, 74, 72, 71, 80, 80, 74, 80, 71, 75, 81, 83
 | 70, 82, 74, 73, 71, 80, 80, 74, 80, 71, 75, 81, 82
 | 71, 82, 74, 73, 71, 80, 80, 74, 80, 72, 75, 81, 82
 | 70, 82, 74, 73, 71, 80, 79, 74, 80, 72, 75, 81, 83
 | 70, 82, 74, 73, 71, 80, 80, 74, 80, 72, 75, 81, 83
 | 71, 82, 74, 73, 71, 80, 79, 74, 79, 72, 75, 81, 82
 | 71, 83, 74, 73, 71, 80, 79, 74, 79, 72, 75, 81, 82
 | 71, 83, 74, 73, 71, 80, 79, 74, 79, 72, 75, 81, 82
 | 71, 83, 74, 73, 71, 80, 79, 74, 79, 72, 75, 81, 82
 | 71, 83, 74, 73, 72, 80, 79, 74, 79, 72, 75, 81, 82
 | 71, 83, 74, 73, 72, 80, 79, 74, 79, 72, 75, 81, 81
 | 71, 83, 74, 73, 72, 80, 79, 74, 79, 72, 75, 81, 81
 | 71, 83, 74, 74, 72, 80, 79, 74, 79, 72, 75, 81, 81
 | 71, 83, 74, 74, 72, 80, 79, 74, 79, 72, 75, 81, 81
 | 71, 83, 74, 74, 72, 80, 79, 74, 79, 72, 75, 81, 81
 | 71, 82, 75, 74, 72, 80, 78, 74, 79, 73, 75, 81, 80
 | 71, 82, 75, 74, 72, 80, 78, 74, 79, 73, 75, 81, 80
 | 71, 82, 75, 75, 72, 80, 78, 74, 79, 73, 75, 81, 79
 | 71, 82, 75, 74, 72, 80, 78, 74, 79, 73, 75, 81, 80
 | 71, 82, 75, 74, 72, 80, 78, 74, 79, 73, 75, 81, 80
 | 71, 83, 74, 74, 72, 80, 79, 74, 79, 72, 75, 81, 80
 | 71, 82, 75, 74, 72, 80, 78, 74, 79, 73, 75, 81, 80
 | 71, 83, 75, 74, 72, 80, 79, 73, 79, 72, 75, 81, 80
 | 71, 82, 75, 75, 72, 80, 78, 74, 79, 73, 75, 81, 79
 | 71, 82, 75, 75, 72, 80, 78, 74, 79, 73, 75, 81, 79
 | 71, 83, 75, 75, 72, 80, 78, 74, 79, 73, 75, 80, 79
 | 71, 83, 75, 75, 72, 80, 78, 74, 79, 73, 75, 80, 78
 | 71, 83, 75, 75, 72, 80, 78, 74, 79, 73, 75, 80, 78
 | 71, 82, 75, 75, 72, 80, 78, 74, 79, 73, 75, 80, 78
 | 71, 82, 75, 75, 72, 80, 79, 74, 79, 73, 76, 80, 78
 | 71, 83, 76, 75, 72, 80, 79, 74, 79, 73, 76, 80, 77
 | 71, 83, 75, 75, 72, 81, 79, 74, 79, 73, 76, 80, 77
 | 71, 83, 74, 74, 72, 80, 79, 74, 79, 72, 75, 81, 80
 | 71, 83, 74, 74, 72, 80, 79, 74, 79, 72, 75, 81, 81
 | 71, 82, 74, 74, 72, 80, 79, 74, 79, 72, 75, 81, 81
 | 71, 82, 74, 74, 72, 80, 79, 74, 79, 72, 75, 81, 81
 | 71, 83, 74, 73, 72, 80, 79, 74, 79, 72, 75, 81, 81
 | 71, 82, 74, 73, 72, 80, 79, 74, 79, 72, 75, 81, 82
 | 71, 82, 74, 73, 72, 80, 79, 74, 79, 72, 75, 81, 82
 | 71, 83, 75, 74, 72, 80, 79, 73, 79, 72, 75, 81, 80
 | 71, 83, 75, 75, 72, 80, 79, 74, 79, 73, 75, 81, 79
 | 71, 83, 75, 75, 72, 80, 78, 74, 79, 73, 75, 80, 79
 | 71, 83, 74, 73, 71, 80, 79, 74, 79, 72, 75, 81, 82
 | 71, 83, 74, 73, 71, 80, 79, 74, 79, 72, 75, 81, 82
 | 71, 82, 74, 73, 71, 80, 79, 74, 79, 72, 75, 81, 83
 | 71, 82, 74, 73, 71, 80, 79, 74, 79, 72, 75, 81, 83
 | 71, 82, 74, 73, 71, 80, 79, 74, 80, 72, 75, 81, 83
 | 71, 82, 74, 73, 71, 80, 79, 74, 80, 72, 75, 81, 82
 | 71, 81, 74, 73, 71, 80, 80, 74, 80, 72, 75, 81, 82
 | 71, 81, 74, 73, 71, 80, 80, 74, 80, 72, 75, 81, 83
 | 71, 81, 74, 72, 71, 80, 80, 74, 80, 72, 75, 81, 83
 | 71, 81, 74, 72, 71, 80, 80, 74, 80, 72, 75, 81, 83
 | 71, 81, 74, 72, 71, 80, 80, 74, 80, 72, 75, 81, 83
 | 71, 83, 75, 75, 72, 80, 78, 74, 79, 73, 75, 81, 79
 | 71, 83, 75, 74, 72, 80, 79, 73, 79, 73, 75, 81, 79
 | 71, 82, 75, 74, 72, 80, 79, 74, 79, 73, 75, 81, 79
 | 71, 83, 75, 74, 72, 80, 79, 73, 79, 72, 75, 81, 79
 | 71, 83, 74, 74, 72, 80, 79, 73, 79, 72, 75, 82, 80
 | 71, 83, 75, 74, 72, 80, 79, 73, 79, 72, 75, 81, 80
 | 71, 83, 75, 74, 72, 80, 79, 73, 79, 73, 75, 81, 79
 | 70, 83, 75, 74, 72, 81, 79, 74, 79, 72, 75, 81, 78
 | 71, 82, 76, 75, 72, 80, 79, 74, 79, 73, 76, 80, 77
 | 71, 83, 76, 75, 72, 80, 79, 74, 79, 73, 76, 80, 77
 | 70, 81, 74, 73, 70, 82, 80, 74, 81, 71, 75, 83, 81
 | 70, 81, 74, 73, 71, 82, 80, 74, 80, 71, 75, 83, 81
 | 70, 81, 74, 73, 71, 81, 80, 73, 80, 71, 75, 83, 81
 | 70, 81, 74, 73, 71, 81, 80, 73, 80, 71, 75, 83, 82
 | 70, 81, 74, 73, 71, 81, 80, 73, 80, 72, 75, 83, 81
 | 70, 82, 74, 73, 71, 81, 79, 73, 80, 72, 75, 83, 81
 | 70, 81, 74, 73, 71, 81, 80, 73, 80, 72, 75, 82, 80
 | 70, 81, 74, 73, 71, 82, 80, 73, 80, 71, 75, 83, 80
 | 70, 81, 74, 73, 70, 82, 80, 74, 81, 71, 75, 83, 80
 | 70, 80, 74, 73, 70, 82, 80, 74, 81, 71, 75, 83, 81
 | 70, 81, 74, 73, 71, 82, 80, 74, 81, 71, 75, 83, 81
 | 70, 81, 74, 73, 71, 82, 80, 74, 81, 71, 75, 83, 81
 | 70, 81, 74, 73, 71, 82, 80, 73, 80, 71, 75, 83, 81
 | 70, 81, 74, 73, 71, 82, 80, 73, 80, 71, 75, 83, 81
 | 70, 81, 74, 73, 71, 82, 80, 73, 80, 71, 75, 83, 81
 | 70, 81, 74, 73, 71, 82, 80, 73, 81, 71, 75, 83, 80
 | 70, 81, 74, 73, 71, 82, 80, 73, 80, 71, 75, 83, 81
 | 70, 81, 74, 73, 71, 81, 80, 73, 80, 71, 75, 83, 81
 | 70, 81, 74, 73, 71, 81, 80, 73, 80, 72, 75, 83, 81
 | 70, 81, 74, 73, 71, 82, 80, 73, 80, 72, 75, 82, 80
 | 70, 81, 74, 73, 71, 82, 80, 73, 80, 72, 75, 82, 80
 | 70, 81, 74, 73, 71, 81, 80, 73, 80, 71, 75, 83, 81
 | 70, 82, 74, 73, 71, 81, 80, 73, 80, 72, 75, 83, 81
 | 70, 82, 74, 73, 71, 81, 80, 73, 80, 72, 75, 82, 80
 | 70, 80, 74, 72, 70, 82, 81, 74, 81, 71, 75, 82, 81
 | 70, 80, 74, 72, 70, 82, 81, 74, 81, 71, 75, 82, 80
 | 69, 80, 74, 73, 70, 83, 81, 74, 81, 71, 75, 82, 80
 | 70, 81, 74, 73, 70, 82, 81, 74, 81, 71, 75, 82, 79
 | 70, 81, 75, 73, 70, 82, 81, 74, 82, 71, 76, 81, 79
 | 70, 80, 75, 72, 70, 82, 82, 74, 82, 71, 76, 80, 79
 | 69, 79, 74, 72, 70, 82, 82, 74, 83, 71, 76, 81, 79
 | 70, 79, 74, 72, 70, 82, 82, 74, 82, 71, 75, 81, 80
 | 70, 80, 74, 72, 70, 82, 81, 74, 82, 71, 75, 82, 81
 | 70, 80, 74, 72, 70, 82, 81, 74, 82, 71, 75, 82, 80
 | 69, 80, 74, 72, 70, 83, 81, 74, 82, 71, 75, 82, 80
 | 69, 80, 74, 73, 70, 83, 81, 74, 81, 71, 75, 82, 80
 | 69, 80, 74, 73, 70, 83, 81, 74, 82, 71, 75, 82, 79
 | 69, 80, 74, 72, 70, 82, 82, 74, 82, 71, 75, 81, 80
 | 69, 80, 74, 72, 70, 83, 82, 74, 82, 71, 75, 81, 80
 | 69, 80, 74, 72, 70, 83, 82, 74, 82, 71, 75, 81, 79
 | 69, 80, 74, 72, 70, 82, 82, 74, 82, 71, 75, 81, 79
 | 69, 80, 74, 72, 70, 83, 82, 74, 82, 71, 76, 81, 79
 | 70, 80, 75, 73, 70, 82, 82, 74, 82, 71, 76, 81, 79
 | 69, 81, 75, 73, 70, 83, 81, 74, 81, 71, 75, 81, 79
 | 69, 80, 74, 72, 70, 82, 81, 74, 82, 71, 75, 82, 80
 | 69, 80, 74, 72, 70, 83, 82, 74, 82, 71, 75, 81, 80
 | 70, 79, 74, 72, 70, 82, 82, 74, 82, 71, 75, 81, 80
 | 69, 81, 75, 73, 70, 83, 81, 74, 82, 71, 75, 81, 79
 | 69, 81, 74, 73, 70, 82, 81, 74, 81, 71, 75, 82, 79
 | 69, 81, 74, 73, 70, 83, 81, 74, 81, 71, 75, 82, 80
 | 69, 80, 74, 72, 70, 83, 81, 74, 81, 71, 75, 82, 80
 | 70, 79, 75, 72, 70, 82, 82, 75, 82, 71, 76, 80, 79
 | 70, 79, 75, 73, 70, 82, 82, 75, 82, 71, 76, 80, 78
 | 70, 80, 75, 73, 71, 81, 82, 75, 81, 72, 77, 79, 78
 | 70, 79, 75, 72, 70, 82, 83, 75, 82, 71, 76, 80, 79
 | 70, 79, 75, 72, 70, 81, 83, 75, 82, 71, 76, 80, 79
 | 71, 78, 75, 73, 71, 81, 83, 76, 81, 72, 77, 79, 79
 | 71, 77, 76, 73, 71, 80, 83, 76, 80, 72, 77, 78, 78
 | 71, 78, 76, 73, 71, 80, 82, 77, 80, 72, 77, 78, 77
 | 71, 78, 76, 73, 71, 80, 83, 77, 80, 72, 78, 78, 77
 | 71, 78, 76, 74, 72, 80, 82, 76, 80, 73, 78, 78, 76
 | 70, 79, 76, 73, 71, 81, 82, 75, 81, 72, 77, 79, 77
 | 70, 79, 75, 73, 71, 81, 82, 75, 81, 72, 77, 79, 78
 | 70, 79, 75, 73, 71, 81, 83, 75, 82, 72, 77, 79, 78
 | 70, 78, 75, 73, 71, 81, 83, 76, 81, 72, 77, 79, 78
 | 71, 78, 75, 73, 71, 80, 83, 76, 81, 72, 77, 79, 78
 | 71, 78, 76, 73, 71, 80, 83, 76, 81, 72, 77, 78, 78
 | 71, 78, 76, 73, 71, 80, 83, 76, 81, 72, 77, 78, 78
 | 70, 78, 75, 73, 71, 81, 83, 76, 81, 72, 77, 79, 78
 | 70, 79, 75, 73, 71, 81, 83, 75, 81, 72, 77, 79, 78
 | 70, 79, 75, 72, 70, 81, 83, 75, 82, 71, 76, 79, 79
 | 71, 78, 75, 73, 71, 81, 82, 76, 81, 72, 77, 79, 78
 | 71, 78, 75, 73, 71, 81, 83, 76, 81, 72, 77, 79, 78
 | 71, 78, 75, 73, 71, 81, 83, 76, 81, 72, 77, 79, 78
 | 70, 79, 75, 73, 71, 81, 82, 75, 82, 71, 76, 80, 78
 | 70, 79, 75, 73, 71, 81, 82, 75, 81, 72, 77, 79, 78
 | 70, 79, 76, 73, 71, 81, 83, 75, 81, 72, 77, 79, 77
 | 71, 78, 76, 73, 71, 80, 83, 76, 81, 72, 77, 78, 77
 | 70, 79, 75, 72, 70, 81, 83, 75, 82, 71, 76, 79, 79
 | 70, 79, 75, 72, 70, 82, 83, 75, 82, 71, 76, 80, 79
 | 70, 79, 75, 72, 70, 82, 83, 75, 82, 71, 76, 80, 79
 | 70, 79, 75, 72, 71, 81, 83, 75, 82, 71, 76, 80, 79
 | 70, 78, 75, 73, 71, 81, 83, 76, 81, 72, 77, 79, 79
 | 70, 79, 75, 73, 71, 81, 83, 75, 82, 72, 76, 79, 79
 | 71, 78, 75, 73, 71, 81, 83, 76, 81, 72, 77, 79, 79
 | 70, 78, 75, 72, 71, 81, 82, 75, 82, 72, 76, 80, 79
 | 70, 79, 75, 72, 70, 81, 83, 75, 82, 71, 76, 80, 79
 | 70, 79, 75, 73, 71, 81, 82, 75, 82, 72, 76, 80, 78
 | 70, 78, 75, 72, 71, 81, 82, 75, 81, 72, 76, 79, 79
 | 70, 79, 75, 72, 70, 82, 83, 75, 82, 71, 76, 80, 79
 | 70, 79, 75, 72, 70, 82, 83, 75, 82, 71, 76, 80, 79
 | 70, 79, 75, 73, 71, 81, 82, 75, 81, 72, 77, 79, 78
 | 71, 78, 76, 73, 71, 80, 83, 76, 80, 72, 77, 78, 77
 | 70, 79, 76, 73, 71, 81, 83, 76, 81, 72, 77, 79, 77
 | 71, 78, 76, 73, 71, 80, 82, 76, 80, 72, 77, 78, 77
 | 71, 78, 76, 73, 71, 80, 83, 76, 80, 72, 77, 78, 77
 | 71, 78, 76, 73, 71, 80, 83, 76, 80, 72, 77, 78, 78
 | 71, 78, 75, 73, 71, 80, 83, 76, 81, 72, 77, 78, 78
 | 71, 78, 75, 73, 71, 80, 82, 76, 81, 72, 77, 79, 78
 | 71, 77, 76, 73, 71, 80, 82, 77, 80, 72, 77, 78, 78
 | 71, 78, 76, 73, 71, 80, 83, 76, 81, 72, 77, 78, 77
 | 71, 78, 76, 73, 71, 80, 83, 77, 80, 72, 78, 78, 77
 | 71, 78, 76, 73, 71, 80, 83, 77, 80, 72, 78, 78, 77
 | 71, 78, 76, 73, 71, 80, 83, 76, 80, 73, 78, 78, 77
 | 71, 78, 76, 73, 71, 80, 83, 76, 80, 72, 77, 78, 77
 | 70, 79, 75, 72, 70, 81, 83, 75, 82, 71, 76, 80, 78
 | 70, 79, 75, 73, 71, 81, 82, 75, 82, 72, 77, 79, 78
 | 70, 79, 75, 73, 71, 81, 83, 75, 81, 72, 77, 79, 78
 | 71, 79, 76, 73, 71, 81, 83, 76, 81, 72, 77, 79, 78
 | 71, 79, 76, 73, 71, 80, 83, 76, 81, 72, 77, 78, 77
 | 71, 78, 76, 73, 71, 80, 83, 76, 80, 72, 78, 78, 77
 | 71, 78, 76, 73, 71, 80, 83, 76, 80, 72, 77, 78, 77
 | 71, 78, 76, 73, 71, 80, 83, 76, 81, 72, 77, 78, 78
 | 71, 78, 76, 73, 71, 80, 83, 76, 80, 72, 77, 78, 78
 | 70, 79, 75, 73, 71, 81, 83, 75, 82, 72, 76, 79, 79
 | 70, 79, 75, 73, 71, 81, 83, 75, 82, 72, 77, 79, 78
 | 71, 79, 76, 73, 71, 81, 83, 76, 81, 72, 77, 79, 78
 | 71, 78, 76, 73, 71, 81, 83, 76, 81, 72, 77, 79, 78
 | 71, 78, 76, 73, 71, 80, 83, 76, 81, 72, 77, 78, 78
 | 71, 78, 75, 73, 71, 81, 83, 76, 81, 72, 77, 79, 78
 | 71, 78, 75, 73, 71, 81, 83, 76, 81, 72, 77, 79, 78
 | 70, 79, 75, 73, 71, 81, 82, 75, 82, 72, 76, 80, 78
 | 70, 79, 75, 72, 70, 82, 82, 75, 82, 71, 76, 80, 78
 | 71, 78, 75, 73, 71, 81, 83, 76, 81, 72, 77, 79, 79
 | 77, 73, 82, 77, 76, 74, 77, 82, 74, 77, 82, 72, 71
 | 77, 73, 82, 77, 76, 74, 77, 82, 74, 77, 83, 72, 71
 | 76, 73, 81, 77, 76, 74, 77, 81, 74, 77, 83, 72, 71
 | 76, 73, 81, 77, 76, 74, 77, 81, 74, 77, 82, 72, 71
 | 76, 74, 81, 78, 76, 74, 77, 80, 74, 77, 83, 72, 71
 | 76, 74, 81, 78, 76, 74, 77, 80, 74, 77, 82, 72, 71
 | 76, 73, 81, 77, 76, 74, 77, 82, 74, 77, 82, 72, 71
 | 76, 73, 81, 77, 76, 74, 77, 82, 74, 77, 82, 72, 71
 | 76, 73, 81, 77, 76, 74, 77, 81, 74, 77, 82, 72, 71
 | 76, 74, 81, 77, 76, 74, 77, 81, 74, 77, 83, 72, 71
 | 76, 74, 81, 77, 76, 74, 77, 81, 75, 77, 83, 72, 71
 | 76, 74, 81, 77, 76, 74, 77, 80, 75, 77, 83, 72, 71
 | 76, 74, 81, 78, 76, 74, 77, 80, 75, 77, 83, 72, 71
 | 76, 74, 81, 78, 76, 74, 77, 80, 74, 77, 83, 72, 71
 | 77, 73, 82, 78, 76, 74, 77, 81, 74, 77, 83, 72, 70
 | 77, 73, 82, 78, 76, 74, 77, 81, 74, 77, 82, 72, 71
 | 77, 73, 82, 77, 76, 74, 77, 82, 74, 77, 83, 72, 71
 | 77, 73, 82, 77, 76, 74, 77, 82, 74, 77, 83, 72, 71
 | 76, 73, 81, 77, 75, 74, 77, 82, 75, 77, 82, 72, 71
 | 76, 74, 81, 77, 75, 74, 78, 81, 75, 77, 82, 72, 71
 | 77, 73, 82, 78, 76, 74, 77, 81, 74, 77, 82, 72, 71
 | 76, 74, 81, 77, 76, 74, 77, 81, 75, 77, 82, 72, 71
 | 77, 73, 82, 77, 76, 74, 77, 81, 74, 77, 82, 72, 71
 | 76, 74, 81, 78, 76, 74, 77, 80, 75, 77, 83, 72, 71
 | 76, 74, 82, 78, 76, 74, 77, 80, 74, 78, 82, 72, 70
 | 76, 74, 81, 78, 76, 74, 77, 80, 74, 77, 83, 72, 71
 | 77, 73, 82, 77, 75, 74, 77, 82, 74, 77, 82, 72, 71
 | 77, 73, 82, 77, 76, 74, 77, 83, 74, 77, 82, 72, 71
 | 77, 73, 82, 77, 75, 74, 77, 82, 74, 77, 82, 72, 71
 | 77, 73, 82, 77, 76, 74, 77, 82, 74, 77, 83, 72, 71
 | 77, 73, 82, 77, 76, 74, 77, 83, 74, 77, 82, 72, 71
 | 76, 73, 81, 77, 75, 74, 77, 82, 75, 77, 82, 72, 71
 | 78, 73, 83, 77, 76, 74, 76, 81, 74, 77, 81, 72, 72
 | 78, 73, 83, 77, 76, 74, 76, 81, 74, 77, 81, 72, 71
 | 78, 73, 82, 77, 77, 74, 76, 81, 74, 78, 81, 72, 71
 | 78, 73, 82, 77, 77, 73, 76, 82, 74, 78, 81, 72, 71
 | 78, 73, 83, 77, 77, 73, 76, 82, 74, 78, 81, 72, 71
 | 78, 73, 83, 78, 77, 73, 76, 82, 73, 78, 82, 71, 70
 | 78, 73, 83, 78, 77, 73, 76, 82, 73, 78, 82, 71, 70
 | 78, 73, 83, 78, 77, 73, 76, 81, 73, 78, 82, 71, 70
 | 78, 73, 83, 78, 77, 73, 76, 81, 73, 79, 82, 71, 70
 | 78, 73, 82, 79, 77, 73, 76, 80, 73, 79, 82, 71, 70
 | 77, 73, 82, 79, 78, 73, 76, 80, 73, 79, 82, 71, 70
 | 77, 74, 82, 80, 78, 73, 76, 79, 73, 79, 81, 72, 70
 | 77, 74, 83, 80, 78, 73, 76, 78, 73, 79, 80, 72, 70
 | 77, 73, 83, 79, 78, 73, 76, 79, 73, 79, 81, 71, 70
 | 78, 73, 82, 79, 77, 73, 76, 80, 73, 79, 82, 71, 70
 | 78, 73, 83, 78, 77, 73, 76, 81, 73, 78, 82, 71, 70
 | 78, 73, 83, 78, 77, 73, 76, 81, 73, 78, 82, 71, 70
 | 78, 73, 83, 77, 77, 73, 76, 82, 74, 78, 82, 71, 71
 | 78, 73, 83, 77, 76, 73, 76, 82, 74, 78, 82, 72, 71
 | 78, 73, 82, 77, 76, 74, 76, 82, 74, 77, 81, 72, 71
 | 78, 73, 83, 77, 76, 74, 76, 81, 74, 77, 81, 72, 71
 | 78, 73, 83, 77, 76, 74, 76, 81, 74, 77, 81, 72, 72
 | 79, 73, 82, 77, 77, 74, 76, 81, 74, 78, 81, 72, 71
 | 79, 73, 82, 77, 77, 73, 76, 81, 74, 78, 81, 72, 71
 | 79, 73, 82, 77, 77, 73, 76, 81, 74, 78, 81, 72, 71
 | 79, 73, 83, 77, 77, 73, 76, 81, 74, 78, 81, 72, 71
 | 79, 72, 83, 78, 77, 73, 76, 81, 73, 78, 81, 71, 71
 | 79, 73, 82, 78, 77, 73, 76, 81, 73, 78, 81, 71, 70
 | 79, 72, 83, 78, 77, 73, 76, 81, 73, 78, 81, 71, 70
 | 79, 73, 83, 78, 77, 73, 76, 81, 73, 78, 81, 71, 70
 | 79, 73, 82, 78, 78, 73, 76, 81, 73, 79, 81, 71, 70
 | 79, 73, 82, 79, 78, 73, 76, 80, 73, 79, 81, 71, 70
 | 78, 73, 82, 79, 78, 73, 76, 80, 73, 79, 81, 71, 70
 | 78, 73, 82, 79, 78, 73, 76, 80, 73, 79, 81, 71, 70
 | 78, 73, 83, 80, 78, 73, 76, 79, 73, 79, 81, 71, 69
 | 78, 73, 83, 79, 78, 73, 76, 79, 73, 79, 81, 71, 69
 | 78, 73, 82, 80, 78, 73, 76, 79, 73, 79, 81, 71, 69
 | 78, 74, 82, 80, 78, 73, 76, 79, 73, 79, 81, 71, 70
 | 77, 74, 83, 80, 78, 73, 76, 78, 73, 79, 80, 71, 69
 | 77, 74, 83, 80, 78, 73, 76, 79, 73, 79, 81, 71, 70
 | 78, 73, 82, 79, 77, 73, 76, 80, 73, 79, 82, 71, 70
 | 78, 73, 82, 79, 78, 73, 76, 80, 73, 79, 81, 71, 70
 | 78, 73, 83, 78, 77, 73, 76, 82, 73, 78, 82, 71, 70
 | 78, 73, 83, 79, 78, 73, 76, 81, 73, 79, 82, 71, 70
 | 79, 73, 82, 79, 78, 73, 76, 80, 73, 79, 81, 71, 70
 | 78, 73, 83, 77, 76, 73, 76, 82, 74, 78, 81, 72, 71
 | 78, 73, 83, 77, 77, 73, 76, 82, 74, 78, 81, 72, 71
 | 78, 73, 83, 77, 77, 73, 76, 82, 74, 78, 82, 71, 71
 | 79, 73, 83, 78, 77, 73, 76, 81, 73, 78, 81, 71, 70
 | 80, 72, 82, 78, 78, 73, 76, 81, 73, 79, 81, 71, 70
 | 80, 72, 83, 78, 78, 73, 75, 81, 73, 79, 81, 71, 70
 | 80, 72, 82, 79, 78, 73, 75, 80, 73, 79, 80, 71, 70
 | 80, 72, 83, 79, 78, 73, 75, 80, 73, 79, 80, 71, 70
 | 80, 72, 83, 79, 79, 72, 75, 80, 73, 80, 80, 71, 70
 | 80, 72, 83, 79, 79, 72, 75, 80, 73, 80, 80, 71, 69
 | 80, 73, 83, 80, 79, 72, 75, 80, 73, 80, 80, 71, 69
 | 80, 72, 83, 79, 79, 72, 75, 80, 73, 80, 80, 71, 70
 | 80, 72, 82, 78, 78, 73, 75, 80, 73, 79, 80, 71, 70
 | 80, 72, 83, 78, 78, 73, 75, 80, 73, 79, 80, 71, 70
 | 80, 72, 82, 79, 78, 73, 75, 80, 73, 79, 80, 71, 70
 | 80, 72, 83, 79, 79, 72, 75, 80, 73, 80, 80, 71, 70
 | 80, 72, 83, 79, 79, 72, 75, 80, 73, 80, 80, 71, 70
 | 80, 72, 82, 79, 79, 72, 75, 80, 73, 80, 80, 71, 69
 | 80, 72, 82, 80, 79, 72, 75, 79, 72, 80, 80, 71, 69
 | 80, 72, 82, 80, 79, 72, 75, 79, 73, 80, 80, 71, 69
 | 80, 72, 83, 78, 78, 73, 75, 80, 73, 79, 80, 71, 70
 | 80, 72, 83, 78, 78, 73, 75, 80, 73, 79, 80, 71, 70
 | 80, 72, 83, 78, 78, 73, 75, 80, 73, 79, 80, 71, 70
 | 80, 72, 83, 78, 78, 73, 75, 80, 73, 79, 80, 71, 70
 | 80, 72, 82, 79, 79, 73, 75, 80, 73, 79, 80, 71, 70
 | 80, 73, 83, 80, 79, 72, 75, 79, 72, 80, 80, 71, 69
 | 80, 72, 83, 80, 79, 72, 75, 80, 73, 80, 80, 71, 69
 | 80, 73, 83, 80, 79, 72, 75, 79, 72, 80, 80, 71, 69
 | 80, 73, 83, 80, 79, 72, 75, 79, 73, 80, 80, 71, 69
 | 80, 73, 83, 80, 80, 72, 75, 79, 72, 81, 80, 71, 69
 | 80, 73, 83, 80, 80, 72, 75, 79, 72, 81, 80, 71, 69
 | 79, 73, 82, 80, 79, 72, 75, 79, 73, 80, 80, 71, 69
 | 79, 73, 82, 80, 80, 72, 75, 79, 73, 81, 80, 71, 69
 | 80, 72, 83, 79, 79, 72, 75, 80, 73, 80, 80, 71, 70
 | 80, 72, 83, 79, 79, 72, 75, 80, 73, 80, 80, 71, 70
 | 80, 72, 83, 79, 79, 72, 75, 80, 73, 80, 80, 71, 70
 | 80, 72, 83, 79, 78, 73, 75, 80, 73, 79, 80, 71, 70
 | 82, 72, 81, 80, 81, 72, 74, 79, 72, 81, 79, 71, 70
 | 83, 72, 81, 80, 81, 72, 74, 78, 72, 81, 79, 71, 70
 | 83, 72, 81, 80, 81, 72, 74, 78, 72, 81, 78, 71, 70
 | 82, 73, 80, 80, 81, 72, 74, 78, 73, 80, 78, 71, 70
 | 83, 73, 80, 80, 81, 73, 74, 78, 73, 80, 78, 71, 70
 | 83, 73, 80, 80, 81, 73, 74, 78, 73, 80, 78, 72, 71
 | 83, 73, 79, 80, 81, 73, 74, 77, 73, 80, 78, 72, 71
 | 83, 72, 81, 80, 81, 72, 74, 78, 72, 81, 79, 71, 70
 | 83, 72, 81, 80, 81, 72, 74, 78, 72, 81, 78, 71, 70
 | 83, 73, 80, 80, 81, 72, 74, 78, 72, 81, 78, 71, 70
 | 83, 73, 80, 80, 81, 72, 74, 78, 73, 80, 78, 71, 70
 | 83, 73, 80, 80, 81, 72, 74, 78, 73, 81, 78, 71, 70
 | 83, 73, 80, 80, 81, 73, 74, 78, 73, 80, 78, 71, 70
 | 83, 73, 80, 80, 81, 72, 74, 78, 73, 80, 78, 71, 70
 | 83, 73, 80, 80, 81, 73, 74, 78, 73, 80, 78, 71, 71
 | 83, 73, 80, 80, 81, 73, 74, 78, 73, 80, 78, 71, 70
 | 83, 73, 80, 80, 81, 73, 74, 78, 73, 80, 78, 72, 71
 | 83, 73, 80, 80, 81, 73, 74, 78, 73, 80, 78, 72, 71
 | 83, 73, 79, 80, 81, 73, 74, 77, 73, 80, 78, 72, 71
 | 83, 73, 79, 80, 81, 73, 74, 78, 73, 80, 78, 72, 71
 | 83, 73, 79, 80, 81, 73, 74, 78, 73, 80, 78, 72, 71
 | 82, 73, 80, 80, 81, 72, 74, 78, 72, 81, 78, 71, 70
 | 83, 73, 80, 80, 81, 72, 74, 78, 72, 81, 78, 71, 70
 | 83, 72, 81, 80, 81, 72, 74, 78, 72, 81, 78, 71, 70
 | 83, 73, 80, 80, 81, 72, 74, 78, 72, 81, 78, 71, 70
 | 83, 73, 79, 80, 81, 73, 74, 77, 73, 80, 77, 72, 71
 | 83, 73, 79, 80, 81, 73, 74, 77, 73, 80, 77, 72, 71
 | 83, 73, 79, 80, 81, 73, 74, 77, 73, 80, 78, 72, 71
 | 83, 73, 79, 80, 81, 73, 74, 77, 73, 80, 78, 72, 71
 | 83, 73, 79, 80, 81, 73, 74, 78, 73, 80, 78, 72, 71
 | 83, 73, 79, 80, 81, 73, 74, 77, 73, 80, 77, 72, 71
 | 83, 73, 80, 80, 81, 73, 74, 78, 73, 80, 78, 71, 70
 | 83, 73, 80, 80, 81, 72, 74, 78, 72, 81, 78, 71, 70
 | 83, 73, 80, 80, 81, 72, 74, 78, 72, 81, 78, 71, 70
 | 83, 73, 80, 80, 81, 72, 74, 78, 73, 81, 78, 71, 70
 | 83, 73, 80, 80, 81, 72, 74, 78, 73, 80, 78, 71, 70
 | 83, 73, 80, 80, 81, 73, 74, 78, 73, 80, 78, 72, 71
 | 83, 73, 79, 80, 81, 73, 74, 78, 73, 80, 78, 72, 71
 | 83, 73, 79, 80, 81, 73, 74, 78, 73, 80, 78, 72, 71
 | 83, 73, 80, 80, 81, 73, 74, 78, 73, 80, 78, 71, 70
 | 82, 73, 80, 79, 80, 73, 75, 78, 73, 80, 78, 71, 71
 | 83, 73, 80, 79, 80, 73, 75, 78, 73, 80, 78, 72, 71
 | 83, 73, 80, 79, 80, 73, 74, 78, 73, 80, 78, 72, 71
 | 83, 73, 80, 79, 80, 73, 75, 78, 73, 80, 78, 72, 71
 | 83, 73, 80, 79, 81, 73, 74, 78, 73, 80, 78, 72, 71
 | 83, 73, 80, 79, 80, 73, 74, 78, 73, 80, 78, 72, 71
 | 83, 73, 80, 79, 80, 73, 74, 78, 73, 80, 78, 72, 71
 | 83, 73, 80, 79, 81, 73, 74, 78, 73, 80, 78, 72, 71
 | 83, 73, 80, 79, 80, 73, 75, 78, 73, 80, 78, 72, 71
 | 83, 73, 79, 79, 80, 73, 75, 78, 73, 80, 78, 72, 71
 | 83, 73, 80, 79, 80, 73, 75, 78, 73, 80, 78, 72, 71
 | 83, 73, 80, 79, 80, 73, 75, 78, 73, 80, 78, 72, 71
 | 83, 73, 80, 79, 80, 73, 75, 78, 73, 80, 78, 72, 71
 | 83, 73, 80, 79, 80, 73, 75, 78, 73, 80, 78, 72, 71
 | 83, 73, 80, 79, 80, 73, 75, 78, 73, 80, 78, 72, 71
 | 83, 73, 80, 79, 80, 73, 75, 78, 73, 80, 78, 72, 71
 | 83, 73, 79, 79, 80, 73, 75, 78, 73, 80, 78, 72, 71
 | 82, 73, 79, 79, 80, 73, 75, 78, 73, 80, 78, 72, 71
 | 83, 73, 80, 79, 80, 73, 74, 78, 73, 80, 78, 72, 71
 | 83, 73, 80, 79, 80, 73, 75, 78, 73, 80, 78, 72, 71
 | 82, 73, 80, 79, 80, 73, 75, 78, 73, 80, 78, 71, 71
 | 83, 73, 80, 79, 80, 73, 75, 78, 73, 80, 78, 71, 71
 | 83, 73, 80, 79, 80, 73, 74, 78, 73, 80, 78, 72, 71
 | 83, 73, 80, 79, 80, 73, 75, 78, 73, 80, 78, 72, 71
 | 83, 73, 80, 79, 80, 73, 75, 78, 73, 80, 78, 72, 71
 | 83, 73, 80, 79, 80, 73, 74, 78, 73, 80, 78, 72, 71
 | 83, 73, 80, 79, 80, 73, 74, 78, 73, 80, 78, 72, 71
 | 83, 73, 80, 79, 80, 73, 74, 78, 73, 80, 78, 72, 71
 | 82, 73, 80, 80, 82, 72, 74, 78, 72, 81, 78, 71, 70
 | 83, 73, 80, 80, 82, 72, 74, 78, 72, 81, 78, 71, 70
 | 83, 73, 80, 80, 82, 72, 74, 77, 72, 81, 78, 71, 70
 | 83, 73, 79, 80, 81, 73, 74, 77, 73, 80, 78, 72, 71
 | 83, 73, 79, 80, 81, 73, 74, 77, 73, 80, 78, 71, 70
 | 83, 73, 80, 80, 82, 72, 74, 77, 73, 81, 78, 71, 70
 | 83, 73, 80, 80, 82, 72, 74, 78, 72, 81, 78, 71, 70
 | 83, 73, 80, 81, 82, 72, 74, 78, 72, 81, 78, 71, 70
 | 83, 73, 80, 81, 82, 72, 74, 77, 72, 81, 78, 71, 70
 | 83, 73, 80, 80, 82, 72, 74, 77, 73, 81, 78, 71, 70
 | 83, 73, 79, 80, 81, 73, 74, 77, 73, 80, 78, 72, 71
 | 83, 73, 80, 80, 82, 72, 74, 77, 73, 81, 78, 71, 70
 | 83, 73, 80, 80, 82, 72, 74, 77, 72, 81, 78, 71, 70
 | 83, 73, 80, 81, 82, 72, 74, 77, 72, 81, 78, 71, 70
 | 83, 73, 80, 80, 82, 72, 74, 78, 72, 81, 78, 71, 70
 | 82, 73, 80, 80, 82, 72, 74, 78, 72, 81, 78, 71, 70
 | 83, 73, 80, 80, 82, 72, 74, 78, 72, 81, 78, 71, 70
 | 83, 73, 79, 80, 81, 73, 74, 77, 73, 80, 78, 71, 70
 | 83, 73, 79, 80, 81, 73, 74, 77, 73, 80, 78, 72, 70
 | 83, 73, 80, 81, 82, 72, 74, 77, 73, 81, 78, 71, 70
 | 83, 73, 80, 80, 82, 72, 74, 77, 72, 81, 78, 71, 70
 | 82, 73, 80, 80, 82, 72, 74, 78, 72, 81, 78, 71, 70
 | 83, 73, 79, 80, 82, 73, 74, 77, 73, 80, 78, 71, 70
 | 83, 73, 80, 80, 82, 72, 74, 77, 72, 81, 78, 71, 70
 | 81, 73, 81, 81, 82, 72, 74, 78, 72, 83, 78, 71, 69
 | 81, 73, 81, 81, 82, 72, 74, 77, 72, 83, 78, 71, 69
 | 81, 73, 81, 81, 82, 72, 74, 77, 72, 83, 78, 71, 69
 | 80, 73, 81, 82, 82, 72, 74, 77, 72, 83, 78, 71, 69
 | 80, 73, 81, 82, 82, 72, 74, 77, 72, 83, 78, 71, 69
 | 80, 73, 81, 82, 82, 72, 74, 77, 72, 83, 78, 71, 69
 | 79, 73, 80, 82, 82, 73, 74, 77, 72, 82, 78, 71, 69
 | 79, 74, 80, 83, 81, 73, 74, 77, 73, 82, 78, 71, 69
 | 79, 74, 80, 82, 81, 73, 74, 77, 72, 82, 78, 71, 69
 | 79, 73, 81, 82, 82, 72, 74, 77, 72, 82, 78, 71, 69
 | 80, 73, 81, 82, 82, 72, 74, 77, 72, 83, 78, 71, 69
 | 80, 73, 81, 82, 82, 72, 74, 77, 72, 83, 78, 71, 69
 | 81, 73, 81, 81, 82, 72, 74, 77, 72, 83, 78, 71, 69
 | 80, 73, 81, 82, 82, 72, 74, 77, 72, 83, 78, 71, 69
 | 79, 74, 80, 82, 81, 73, 74, 77, 72, 82, 78, 71, 69
 | 79, 74, 80, 83, 81, 73, 74, 77, 73, 82, 78, 71, 69
 | 79, 73, 80, 82, 82, 73, 74, 77, 72, 82, 78, 71, 69
 | 79, 73, 80, 82, 82, 72, 74, 77, 72, 82, 78, 71, 69
 | 80, 73, 81, 82, 82, 72, 74, 77, 72, 83, 78, 71, 69
 | 80, 73, 81, 82, 82, 72, 74, 77, 72, 83, 78, 71, 69
 | 78, 74, 80, 83, 81, 73, 75, 77, 73, 81, 78, 71, 69
 | 78, 74, 80, 83, 80, 73, 75, 77, 73, 81, 78, 71, 69
 | 79, 74, 81, 83, 81, 73, 75, 77, 72, 82, 78, 71, 69
 | 79, 74, 80, 83, 81, 73, 74, 77, 72, 82, 79, 71, 69
 | 79, 73, 81, 82, 81, 72, 74, 77, 72, 82, 79, 71, 69
 | 80, 73, 81, 82, 82, 72, 74, 77, 72, 83, 78, 71, 69
 | 78, 74, 80, 83, 81, 73, 75, 77, 73, 81, 78, 71, 69
 | 79, 73, 80, 82, 81, 73, 74, 77, 72, 82, 78, 71, 69
 | 80, 73, 81, 82, 81, 72, 74, 77, 72, 82, 79, 71, 69
 | 80, 73, 81, 82, 82, 72, 74, 77, 72, 82, 78, 71, 69
 | 79, 73, 81, 82, 81, 73, 74, 77, 72, 82, 79, 71, 69
 | 79, 73, 81, 82, 81, 72, 74, 77, 72, 82, 79, 71, 69
 | 82, 73, 80, 81, 83, 72, 74, 77, 72, 82, 78, 71, 69
 | 81, 73, 80, 82, 83, 72, 74, 77, 72, 82, 78, 71, 69
 | 80, 73, 80, 82, 83, 72, 74, 77, 72, 82, 78, 71, 69
 | 80, 73, 80, 82, 82, 72, 74, 77, 72, 82, 78, 71, 69
 | 79, 74, 80, 83, 82, 73, 74, 77, 72, 82, 78, 71, 69
 | 79, 74, 80, 83, 81, 73, 74, 77, 73, 81, 78, 71, 70
 | 78, 75, 80, 83, 81, 73, 75, 76, 73, 81, 78, 72, 70
 | 77, 75, 80, 83, 80, 74, 75, 76, 73, 80, 78, 73, 70
 | 78, 75, 80, 82, 80, 74, 75, 76, 73, 80, 78, 72, 70
 | 78, 75, 80, 83, 81, 73, 75, 76, 73, 81, 78, 72, 70
 | 78, 74, 80, 83, 81, 73, 75, 76, 73, 81, 78, 72, 70
 | 79, 74, 80, 83, 82, 73, 74, 77, 73, 82, 78, 71, 70
 | 79, 74, 80, 83, 82, 73, 74, 77, 72, 82, 78, 71, 69
 | 80, 73, 80, 83, 82, 72, 74, 77, 72, 82, 78, 71, 69
 | 80, 73, 80, 82, 83, 72, 74, 77, 72, 82, 78, 71, 69
 | 81, 73, 80, 82, 83, 72, 74, 77, 72, 82, 78, 71, 69
 | 81, 73, 80, 82, 83, 72, 74, 77, 72, 82, 78, 71, 69
 | 82, 73, 80, 81, 83, 72, 74, 77, 72, 82, 78, 71, 70
 | 81, 73, 80, 82, 83, 72, 74, 77, 72, 82, 78, 71, 69
 | 81, 73, 80, 82, 83, 72, 74, 77, 72, 82, 78, 71, 69
 | 81, 73, 80, 82, 83, 72, 74, 77, 72, 82, 78, 71, 69
 | 80, 73, 80, 82, 83, 72, 74, 77, 72, 82, 78, 71, 69
 | 80, 73, 80, 83, 82, 72, 74, 77, 72, 82, 78, 71, 69
 | 80, 73, 80, 82, 83, 72, 74, 77, 72, 82, 78, 71, 69
 | 80, 73, 80, 83, 82, 72, 74, 77, 72, 82, 78, 71, 69
 | 79, 74, 80, 83, 82, 73, 74, 77, 72, 82, 78, 71, 69
 | 80, 73, 80, 82, 82, 72, 74, 77, 72, 82, 78, 71, 69
 | 80, 73, 80, 83, 82, 72, 74, 77, 72, 82, 78, 71, 69
 | 80, 74, 80, 83, 82, 73, 74, 77, 72, 82, 78, 71, 70
 | 79, 74, 80, 83, 82, 73, 74, 76, 72, 82, 78, 71, 70
 | 79, 74, 80, 83, 82, 73, 74, 77, 72, 82, 78, 71, 70
 | 79, 74, 80, 83, 81, 73, 74, 76, 73, 81, 78, 72, 70
 | 79, 74, 80, 83, 82, 73, 74, 76, 73, 81, 78, 72, 70
 | 79, 74, 80, 83, 82, 73, 74, 76, 73, 81, 78, 71, 70
 | 79, 74, 80, 82, 81, 73, 75, 76, 73, 81, 78, 72, 70
 | 78, 74, 80, 82, 81, 73, 75, 76, 73, 81, 78, 72, 70
 | 78, 75, 80, 82, 81, 74, 75, 76, 73, 81, 78, 72, 70
 | 78, 75, 80, 82, 80, 74, 75, 76, 73, 80, 78, 72, 70
 | 77, 75, 79, 83, 80, 74, 75, 76, 73, 80, 78, 73, 71
 | 77, 75, 80, 83, 80, 74, 75, 76, 73, 80, 78, 72, 70
 | 78, 75, 79, 82, 80, 74, 75, 76, 73, 80, 78, 72, 70
 | 77, 75, 79, 83, 80, 74, 75, 76, 73, 80, 78, 73, 71
 | 77, 76, 79, 83, 79, 74, 75, 76, 74, 80, 78, 73, 71
 | 77, 76, 79, 83, 80, 74, 75, 76, 74, 80, 77, 73, 71
 | 78, 75, 79, 82, 80, 74, 75, 76, 73, 80, 78, 72, 70
 | 78, 75, 79, 82, 81, 73, 75, 76, 73, 81, 78, 72, 70
 | 79, 74, 79, 82, 82, 73, 74, 76, 73, 81, 78, 72, 70
 | 79, 74, 80, 83, 82, 73, 74, 76, 73, 81, 78, 71, 70
 | 80, 73, 80, 83, 82, 72, 74, 77, 72, 82, 78, 71, 69
 | 82, 73, 80, 82, 83, 72, 74, 77, 72, 82, 78, 71, 69
 | 81, 73, 80, 82, 83, 72, 74, 77, 72, 82, 78, 71, 69
 | 81, 73, 80, 82, 83, 72, 74, 77, 72, 82, 78, 71, 69
 | 81, 73, 80, 82, 83, 72, 74, 77, 72, 82, 78, 71, 69
 | 82, 73, 80, 82, 83, 72, 74, 77, 72, 82, 78, 71, 69
 | 80, 73, 80, 82, 83, 72, 74, 77, 72, 82, 78, 71, 69
 | 79, 74, 80, 83, 82, 73, 74, 77, 73, 82, 78, 71, 70
 | 79, 74, 80, 83, 81, 73, 74, 76, 73, 81, 78, 71, 70
 | 78, 74, 80, 83, 81, 73, 75, 76, 73, 81, 78, 72, 70
 | 78, 74, 80, 83, 81, 73, 75, 76, 73, 81, 78, 72, 70
 | 77, 75, 80, 83, 80, 74, 75, 76, 73, 80, 78, 72, 70
 | 78, 75, 80, 83, 81, 73, 75, 76, 73, 81, 78, 72, 70
 | 77, 75, 79, 83, 80, 74, 75, 76, 74, 80, 78, 73, 71
 | 77, 75, 79, 83, 80, 74, 75, 76, 74, 80, 77, 73, 71
 | 82, 73, 80, 81, 83, 72, 74, 77, 72, 81, 78, 71, 70
 | 81, 73, 80, 82, 83, 72, 74, 77, 72, 82, 78, 71, 69
 | 82, 73, 80, 81, 83, 72, 74, 77, 72, 81, 78, 71, 70
 | 82, 73, 80, 82, 83, 72, 74, 77, 72, 82, 78, 71, 70
 | 81, 73, 80, 82, 83, 72, 74, 77, 72, 82, 78, 71, 69
 | 81, 73, 80, 82, 83, 72, 74, 77, 72, 82, 78, 71, 70
 | 81, 73, 80, 82, 83, 72, 74, 77, 72, 82, 78, 71, 70
 | 81, 73, 80, 82, 83, 72, 74, 77, 72, 82, 78, 71, 69
 | 81, 73, 80, 83, 82, 72, 74, 77, 72, 81, 78, 71, 70
 | 80, 73, 80, 83, 82, 73, 74, 77, 72, 81, 77, 71, 70
 | 80, 74, 79, 83, 82, 73, 74, 76, 72, 81, 78, 71, 70
 | 79, 74, 79, 83, 82, 73, 74, 76, 73, 81, 78, 72, 70
 | 79, 74, 79, 83, 81, 73, 74, 76, 73, 81, 77, 72, 70
 | 78, 75, 79, 82, 81, 73, 75, 76, 73, 81, 77, 72, 70
 | 79, 74, 79, 83, 81, 73, 75, 76, 73, 81, 77, 72, 70
 | 79, 74, 79, 83, 82, 73, 74, 76, 73, 81, 77, 72, 70
 | 79, 74, 79, 83, 82, 73, 74, 76, 73, 81, 78, 72, 70
 | 80, 74, 79, 83, 82, 73, 74, 76, 72, 81, 77, 71, 70
 | 81, 73, 80, 83, 82, 73, 74, 77, 72, 81, 77, 71, 70
 | 80, 74, 79, 83, 82, 73, 74, 76, 72, 81, 77, 71, 70
 | 80, 74, 79, 83, 82, 73, 74, 76, 73, 81, 77, 71, 70
 | 80, 74, 79, 83, 82, 73, 74, 76, 73, 81, 77, 72, 70
 | 80, 74, 79, 83, 82, 73, 74, 76, 72, 81, 77, 71, 70
 | 80, 73, 79, 83, 82, 73, 74, 76, 72, 81, 77, 71, 70
 | 79, 74, 79, 83, 82, 73, 74, 76, 73, 81, 77, 72, 70
 | 80, 74, 79, 83, 82, 73, 74, 76, 73, 81, 77, 72, 70
 | 79, 74, 79, 83, 82, 73, 74, 76, 73, 81, 77, 72, 70
 | 79, 74, 79, 83, 81, 73, 74, 76, 73, 81, 77, 72, 70
 | 79, 75, 79, 82, 81, 73, 75, 76, 73, 81, 77, 72, 70
 | 78, 75, 79, 82, 81, 73, 75, 76, 73, 81, 77, 72, 70
 | 79, 74, 79, 83, 81, 73, 74, 76, 73, 81, 77, 72, 70
 | 79, 74, 79, 83, 82, 73, 74, 76, 73, 81, 77, 72, 70
 | 80, 74, 79, 83, 82, 73, 74, 76, 73, 81, 77, 72, 70
 | 80, 74, 80, 83, 82, 73, 74, 76, 72, 81, 78, 71, 70
 | 80, 73, 80, 83, 82, 73, 74, 76, 72, 81, 77, 71, 70
 | 79, 75, 79, 82, 81, 73, 75, 76, 73, 81, 77, 72, 70
 | 78, 75, 79, 82, 81, 74, 75, 76, 73, 80, 77, 73, 71
 | 78, 75, 79, 82, 81, 74, 75, 76, 73, 80, 77, 72, 71
 | 79, 75, 79, 82, 81, 74, 75, 76, 73, 80, 77, 72, 71
 | 79, 75, 79, 82, 81, 73, 75, 76, 73, 81, 77, 72, 71
 | 79, 74, 79, 83, 81, 73, 74, 76, 73, 81, 77, 72, 70
 | 79, 74, 79, 83, 82, 73, 74, 76, 73, 81, 77, 72, 70
 | 80, 74, 79, 83, 82, 73, 74, 76, 73, 81, 77, 72, 70
 | 80, 74, 79, 83, 82, 73, 74, 76, 73, 81, 77, 72, 70
 | 81, 73, 79, 83, 82, 73, 74, 77, 72, 81, 77, 71, 70
 | 80, 74, 79, 83, 82, 73, 74, 76, 72, 81, 77, 71, 70
 | 80, 74, 79, 83, 82, 73, 74, 76, 73, 81, 77, 72, 70
 | 80, 74, 79, 83, 82, 73, 74, 76, 73, 81, 77, 72, 70
 | 80, 74, 79, 82, 82, 73, 74, 76, 73, 81, 77, 72, 70
 | 80, 74, 79, 82, 82, 73, 74, 76, 73, 81, 77, 72, 70
 | 79, 74, 79, 83, 81, 73, 74, 76, 73, 81, 77, 72, 70
 | 79, 74, 79, 83, 81, 73, 74, 76, 73, 81, 77, 72, 70
 | 80, 74, 79, 82, 82, 73, 74, 76, 73, 81, 77, 72, 70
 | 80, 74, 79, 82, 82, 73, 74, 76, 73, 81, 77, 72, 70
 | 80, 74, 79, 83, 82, 73, 74, 76, 73, 81, 77, 72, 70 |];
 P=[13, 13, 13, 13, 2, 2, 2, 2, 2, 2, 2, 2, 2, 2, 2, 2, 2, 2, 13, 13, 13, 13, 13, 13, 2, 2, 2, 2, 2, 2, 2, 2, 2, 2, 2, 2, 2, 2, 2, 2, 2, 2, 2, 13, 13, 13, 13, 13, 13, 13, 2, 2, 2, 2, 2, 2, 2, 2, 2, 2, 2, 2, 2, 2, 2, 2, 2, 2, 2, 2, 2, 2, 2, 2, 2, 2, 2, 2, 2, 2, 2, 2, 2, 2, 2, 2, 2, 2, 2, 2, 13, 13, 13, 13, 13, 13, 13, 13, 2, 2, 2, 2, 2, 2, 2, 2, 2, 2, 12, 12, 12, 12, 12, 12, 12, 12, 12, 12, 12, 12, 12, 12, 12, 12, 12, 12, 12, 12, 12, 12, 12, 12, 6, 6, 6, 6, 6, 9, 9, 6, 6, 6, 6, 6, 6, 6, 6, 6, 6, 9, 9, 6, 6, 6, 6, 6, 6, 6, 6, 7, 7, 7, 7, 7, 7, 7, 7, 7, 7, 7, 7, 7, 7, 7, 7, 7, 7, 7, 7, 7, 7, 7, 7, 7, 7, 7, 7, 7, 7, 7, 7, 7, 7, 7, 7, 7, 7, 7, 7, 7, 7, 7, 7, 7, 7, 7, 7, 7, 7, 7, 7, 7, 7, 7, 7, 7, 7, 7, 7, 7, 7, 7, 7, 7, 7, 7, 7, 7, 7, 7, 7, 7, 11, 11, 11, 11, 11, 11, 11, 11, 11, 11, 11, 11, 11, 11, 11, 11, 11, 11, 11, 11, 11, 11, 11, 11, 11, 11, 11, 11, 11, 11, 8, 11, 3, 3, 3, 3, 3, 3, 3, 3, 3, 3, 3, 3, 3, 3, 3, 3, 3, 3, 3, 3, 3, 3, 3, 3, 3, 3, 3, 3, 3, 3, 3, 3, 3, 3, 3, 3, 3, 3, 3, 3, 3, 3, 3, 3, 3, 3, 3, 3, 3, 3, 3, 3, 3, 3, 3, 3, 3, 3, 3, 3, 3, 3, 3, 3, 3, 3, 3, 3, 3, 3, 3, 3, 3, 3, 3, 3, 3, 3, 3, 3, 3, 3, 1, 1, 1, 1, 1, 1, 1, 1, 1, 1, 1, 1, 1, 1, 1, 1, 1, 1, 1, 1, 1, 1, 1, 1, 1, 1, 1, 1, 1, 1, 1, 1, 1, 1, 1, 1, 1, 1, 1, 1, 1, 1, 1, 1, 1, 1, 1, 1, 1, 1, 1, 1, 1, 1, 1, 1, 1, 1, 1, 1, 1, 1, 1, 1, 1, 1, 1, 1, 1, 1, 1, 1, 1, 1, 1, 1, 1, 1, 1, 1, 1, 1, 1, 1, 1, 1, 1, 1, 1, 1, 1, 1, 10, 10, 10, 10, 10, 10, 4, 4, 4, 10, 10, 10, 10, 10, 4, 4, 4, 10, 10, 10, 4, 4, 4, 4, 10, 10, 4, 4, 10, 10, 4, 4, 5, 5, 5, 10, 4, 4, 4, 4, 4, 4, 4, 4, 4, 10, 5, 5, 5, 5, 5, 5, 5, 5, 4, 10, 4, 4, 10, 4, 4, 4, 4, 4, 4, 4, 4, 4, 4, 4, 4, 4, 4, 4, 4, 4, 4, 4, 4, 4, 10, 5, 5, 5, 5, 5, 5, 4, 4, 4, 4, 4, 4, 4, 4, 5, 5, 5, 5, 5, 5, 5, 5, 5, 4, 4, 4, 4, 4, 4, 4, 4, 4, 5, 4, 4, 4, 4, 4, 4, 4, 4, 4, 4, 4, 4, 4, 4, 4, 4, 4, 4, 4, 4, 4, 4, 4, 4, 4, 5, 4, 4, 4, 4, 4, 4, 4, 4, 4, 4 ];